=== Ex2 - Case 1 - NetPosPos - Python ===

\ENCODING=ISO-8859-1
\Problem name: 

Minimize
 obj: 100 abs_{TF,0}#6 + 100 abs_{P,0}#7 + 100 abs_{G,0}#8 + 20 xp_{TF,0}#9
      + 20 xp_{P,0}#10 + 20 xp_{G,0}#11 + 20 xm_{TF,0}#12 + 20 xm_{P,0}#13
      + 20 xm_{G,0}#14
Subject To
 c1:  - x_{P,0}#1 + up_{0,0}#15 >= 0
 c2:  - x_{TF,0}#0 + up_{1,0}#16 >= 0
 c3:  x_{P,0}#1 + um_{0,0}#17 >= 0
 c4:  x_{TF,0}#0 + um_{1,0}#18 >= 0
 c5:  up_{0,0}#15 + um_{0,0}#17 <= 1
 c6:  up_{1,0}#16 + um_{1,0}#18 <= 1
 c7:  - x_{P,0}#1 + up_{0,0}#15 - um_{0,0}#17 <= 0
 c8:  - x_{TF,0}#0 + up_{1,0}#16 - um_{1,0}#18 <= 0
 c9:  x_{P,0}#1 - up_{0,0}#15 + um_{0,0}#17 <= 0
 c10: x_{TF,0}#0 - up_{1,0}#16 + um_{1,0}#18 <= 0
 c11: xp_{TF,0}#9 - up_{0,0}#15 <= 0
 c12: xp_{P,0}#10 <= 0
 c13: xp_{G,0}#11 - up_{1,0}#16 <= 0
 c14: xm_{TF,0}#12 - um_{0,0}#17 <= 0
 c15: xm_{P,0}#13 <= 0
 c16: xm_{G,0}#14 - um_{1,0}#18 <= 0
 c17: x_{TF,0}#0 - B_{TF,0}#3 - xp_{TF,0}#9 + xm_{TF,0}#12  = 0
 c18: x_{P,0}#1 - B_{P,0}#4 - xp_{P,0}#10 + xm_{P,0}#13  = 0
 c19: x_{G,0}#2 - B_{G,0}#5 - xp_{G,0}#11 + xm_{G,0}#14  = 0
 c20: - x_{G,0}#2 + abs_{G,0}#8 >= -1
 c21: x_{G,0}#2 + abs_{G,0}#8 >= 1
 c22: - 101 up_{0,0}#15 + dist_{TF,0}#19 - dist_{P,0}#20 >= -100
 c23: - 101 up_{1,0}#16 - dist_{TF,0}#19 + dist_{G,0}#21 >= -100
 c24: - 101 um_{0,0}#17 + dist_{TF,0}#19 - dist_{P,0}#20 >= -100
 c25: - 101 um_{1,0}#18 - dist_{TF,0}#19 + dist_{G,0}#21 >= -100
 c26: x_{P,0}#1  = 1
 c27: x_{P,0}#1 - B_{P,0}#4  = 0
 c28: B_{TF,0}#3  = 0
 c29: B_{G,0}#5  = 0
Bounds
-1 <= x_{TF,0}#0 <= 1
-1 <= x_{P,0}#1 <= 1
-1 <= x_{G,0}#2 <= 1
-1 <= B_{TF,0}#3 <= 1
-1 <= B_{P,0}#4 <= 1
-1 <= B_{G,0}#5 <= 1
 0 <= abs_{TF,0}#6 <= 2
 0 <= abs_{P,0}#7 <= 2
 0 <= abs_{G,0}#8 <= 2
 0 <= xp_{TF,0}#9 <= 1
 0 <= xp_{P,0}#10 <= 1
 0 <= xp_{G,0}#11 <= 1
 0 <= xm_{TF,0}#12 <= 1
 0 <= xm_{P,0}#13 <= 1
 0 <= xm_{G,0}#14 <= 1
 0 <= up_{0,0}#15 <= 1
 0 <= up_{1,0}#16 <= 1
 0 <= um_{0,0}#17 <= 1
 0 <= um_{1,0}#18 <= 1
 0 <= dist_{TF,0}#19 <= 100
 0 <= dist_{P,0}#20 <= 100
 0 <= dist_{G,0}#21 <= 100
Binaries
 xp_{TF,0}#9  xp_{P,0}#10  xp_{G,0}#11  xm_{TF,0}#12  xm_{P,0}#13  xm_{G,0}#14 
 up_{0,0}#15  up_{1,0}#16  um_{0,0}#17  um_{1,0}#18 
Generals
 x_{TF,0}#0  x_{P,0}#1  x_{G,0}#2  B_{TF,0}#3  B_{P,0}#4  B_{G,0}#5 
 abs_{TF,0}#6  abs_{P,0}#7  abs_{G,0}#8 
End
